param set_len = 32;
param target_sum = 10225752233;
param values := [1] 173434651 [2] 980496459 [3] 1064601582 [4] 389769944 [5] 274755437 [6] 937471122 [7] 796465332 [8] 548246690 [9] 295033798 [10] 907737985 [11] 766186322 [12] 355304869 [13] 86804544 [14] 619801689 [15] 958689264 [16] 343641617 [17] 479417804 [18] 738477914 [19] 848994702 [20] 71760697 [21] 230987780 [22] 951866888 [23] 29211446 [24] 396491319 [25] 720304920 [26] 661941986 [27] 572515738 [28] 871701638 [29] 348862324 [30] 38196788 [31] 83134410 [32] 395597729 ;
